Data path: /scratch/opt/lxu/CFLG/benchmarks/random_A
Instance: r_10_0.2_9.txt
Result path: /scratch/opt/lxu/CFLG/results/random_A
Solver: Gurobi
Time limit: 7200
Formulation: LEFP
Cover: Large
julia --project=. src/main.jl /scratch/opt/lxu/CFLG/benchmarks/random_A r_10_0.2_9.txt /scratch/opt/lxu/CFLG/results/random_A Gurobi 7200 LEFP Large
The latest version of Julia in the `release` channel is 1.11.6+0.x64.linux.gnu. You currently have `1.11.4+0.x64.linux.gnu` installed. Run:

  juliaup update

in your terminal shell to install Julia 1.11.6+0.x64.linux.gnu and update the `release` channel to that version.
/scratch/opt/lxu/CFLG/benchmarks/random_A Gurobi 7200.0 /scratch/opt/lxu/CFLG/results/random_A r_10_0.2_9.txt LEFP Large
/scratch/opt/lxu/CFLG/benchmarks/random_A/r_10_0.2_9.txt

 read graph
data loaded

problem_graph/original graph: node: 10/10 edge: 9/9 dlt: 0.9411961376803664 break_avg_len: 0.4705980688401832 break_max_len: 0.8466035273230632Set parameter TokenServer to value "solice01.zib.de"
Set parameter Threads to value 1
Set parameter OutputFlag to value 1
Gurobi Optimizer version 12.0.1 build v12.0.1rc0 (linux64 - "Debian GNU/Linux 12 (bookworm)")

CPU model: Intel(R) Xeon(R) Gold 5222 CPU @ 3.80GHz, instruction set [SSE2|AVX|AVX2|AVX512]
Thread count: 8 physical cores, 16 logical processors, using up to 1 threads

Non-default parameters:
Threads  1

Optimize a model with 19 rows, 27 columns and 45 nonzeros
Model fingerprint: 0x2b1eb4c9
Coefficient statistics:
  Matrix range     [1e+00, 1e+00]
  Objective range  [1e+00, 1e+00]
  Bounds range     [1e+00, 1e+00]
  RHS range        [1e+00, 1e+00]
Presolve removed 19 rows and 27 columns
Presolve time: 0.00s
Presolve: All rows and columns removed
Iteration    Objective       Primal Inf.    Dual Inf.      Time
       0    7.0000000e+00   0.000000e+00   0.000000e+00      0s

Solved in 0 iterations and 0.00 seconds (0.00 work units)
Optimal objective  7.000000000e+00

User-callback calls 68, time in user-callback 0.00 sec
elapsed CPU time: 0.888179 seconds
Set parameter TokenServer to value "solice01.zib.de"
Set parameter Threads to value 1
Set parameter OutputFlag to value 1
Set parameter MIPGap to value 0.0001
Set parameter TimeLimit to value 7199.111821

 more cuts: false 0.9411961376803664 false
is_attach:falseformulation:LEFP0 9 10

 model loaded

Gurobi Optimizer version 12.0.1 build v12.0.1rc0 (linux64 - "Debian GNU/Linux 12 (bookworm)")

CPU model: Intel(R) Xeon(R) Gold 5222 CPU @ 3.80GHz, instruction set [SSE2|AVX|AVX2|AVX512]
Thread count: 8 physical cores, 16 logical processors, using up to 1 threads

Non-default parameters:
TimeLimit  7199.111821
Threads  1

Optimize a model with 194 rows, 107 columns and 505 nonzeros
Model fingerprint: 0xd65bc807
Variable types: 28 continuous, 79 integer (79 binary)
Coefficient statistics:
  Matrix range     [4e-02, 2e+00]
  Objective range  [1e+00, 1e+00]
  Bounds range     [3e-01, 8e-01]
  RHS range        [3e-01, 2e+00]
Found heuristic solution: objective 6.0000000
Presolve removed 79 rows and 40 columns
Presolve time: 0.01s
Presolved: 115 rows, 67 columns, 424 nonzeros
Variable types: 15 continuous, 52 integer (52 binary)

Root relaxation: objective 2.000000e+00, 39 iterations, 0.00 seconds (0.00 work units)

    Nodes    |    Current Node    |     Objective Bounds      |     Work
 Expl Unexpl |  Obj  Depth IntInf | Incumbent    BestBd   Gap | It/Node Time

*    0     0               0       2.0000000    2.00000  0.00%     -    0s

Explored 1 nodes (39 simplex iterations) in 0.01 seconds (0.00 work units)
Thread count was 1 (of 16 available processors)

Solution count 2: 2 6 

Optimal solution found (tolerance 1.00e-04)
Best objective 2.000000000000e+00, best bound 2.000000000000e+00, gap 0.0000%

User-callback calls 668, time in user-callback 0.00 sec

 sepatime0 0 0
2.0
Stat(MathOptInterface.OPTIMAL, 2.0, 2.0, 0.0, 0.0, 0.888179, 0.006281852722167969, 1, Main.CFLG.LEFP, "", #undef)
